# Solution for model r10_t9_m2_1 Batch Number: 1
# Finished Task: 9 / 9
# Makespan: 459.0, Total Distance: 136.0, Total Time: 1.7799
# R O S F Batch
0 0 17 0.0 0.0 -1
1 1 -1 0.0 0.0 -1
2 2 10 0.0 0.0 -1
3 3 -1 0.0 0.0 -1
4 4 14 0.0 0.0 -1
5 5 15 0.0 0.0 -1
6 6 11 0.0 0.0 -1
7 7 -1 0.0 0.0 -1
8 8 12 0.0 0.0 -1
9 9 -1 0.0 0.0 -1
10 2 18 365.0 390.0 0
11 6 -1 251.0 284.0 0
12 8 13 383.0 407.0 0
13 8 -1 407.0 438.0 0
14 4 16 363.0 383.0 0
15 5 -1 279.0 301.0 0
16 4 -1 419.0 444.0 0
17 0 -1 336.0 365.0 0
18 2 -1 422.0 459.0 0
